68 43 28 44 66 4 50 90 88 73 97 63 59 2 93 16 45 78 57 48 56 85 91 34 22 25 42 55 83 51 6 95 54 87 0 82 17 39 70 69 33 92 53 5 86 9 11 71 47 52 31 37 60 62 76 12 58 72 77 10 1 38 64 32 94 20 24 36 35 67 98 7 80 3 61 14 99 15 46 30 75 74 49 84 19 21 8 23 27 81 65 89 41 26 18 40 29 13 79 96 

